nK = 535;
nT = 4;
nI = 7;
L = 29;
TT = 119;
np = 1;
nc = 3;
b = [38, 33, 35, 29, 61, 43, 43];
d = [109, 72, 110, 150, 110, 104, 125];
m = [1.1, 2.3, 1.7, 1.5, 2.5, 2.4, 1.3];
pt = [0.22, 0.34, 0.2, 0.35];
st = [8.8, 18.36, 12, 15.05];
arc = {<1, 0, 1, 1, 0, 0, 0, [1, 1, 1, 1]>, <2, 1, 2, 1, 0, 0, 0, [1, 1, 1, 1]>, <3, 2, 3, 1, 0, 0, 0, [1, 1, 1, 1]>, <4, 3, 4, 1, 0, 0, 0, [1, 1, 1, 1]>, <5, 4, 5, 1, 0, 0, 0, [1, 1, 1, 1]>, <6, 5, 6, 1, 0, 0, 0, [1, 1, 1, 1]>, <7, 6, 7, 1, 0, 0, 0, [1, 1, 1, 1]>, <8, 7, 8, 1, 0, 0, 0, [1, 1, 1, 1]>, <9, 8, 9, 1, 0, 0, 0, [1, 1, 1, 1]>, <10, 9, 10, 1, 0, 0, 0, [1, 1, 1, 1]>, <11, 10, 11, 1, 0, 0, 0, [1, 1, 1, 1]>, <12, 11, 12, 1, 0, 0, 0, [1, 1, 1, 1]>, <13, 12, 13, 1, 0, 0, 0, [1, 1, 1, 1]>, <14, 13, 14, 1, 0, 0, 0, [1, 1, 1, 1]>, <15, 14, 15, 1, 0, 0, 0, [1, 1, 1, 1]>, <16, 15, 16, 1, 0, 0, 0, [1, 1, 1, 1]>, <17, 16, 17, 1, 0, 0, 0, [1, 1, 1, 1]>, <18, 17, 18, 1, 0, 0, 0, [1, 1, 1, 1]>, <19, 18, 19, 1, 0, 0, 0, [1, 1, 1, 1]>, <20, 19, 20, 1, 0, 0, 0, [1, 1, 1, 1]>, <21, 20, 21, 1, 0, 0, 0, [1, 1, 1, 1]>, <22, 21, 22, 1, 0, 0, 0, [1, 1, 1, 1]>, <23, 22, 23, 1, 0, 0, 0, [1, 1, 1, 1]>, <24, 23, 24, 1, 0, 0, 0, [1, 1, 1, 1]>, <25, 24, 25, 1, 0, 0, 0, [1, 1, 1, 1]>, <26, 25, 26, 1, 0, 0, 0, [1, 1, 1, 1]>, <27, 26, 27, 1, 0, 0, 0, [1, 1, 1, 1]>, <28, 27, 28, 1, 0, 0, 0, [1, 1, 1, 1]>, <29, 28, 29, 1, 0, 0, 0, [1, 1, 1, 1]>, <30, 4, 11, 7, 1, 1, 0, [1, 0, 1, 1]>, <31, 5, 12, 7, 1, 1, 0, [1, 0, 1, 1]>, <32, 11, 18, 7, 1, 1, 0, [1, 0, 1, 1]>, <33, 12, 19, 7, 1, 1, 0, [1, 0, 1, 1]>, <34, 17, 24, 7, 1, 1, 0, [1, 0, 1, 1]>, <35, 18, 25, 7, 1, 1, 0, [1, 0, 1, 1]>, <36, 19, 26, 7, 1, 1, 0, [1, 0, 1, 1]>, <37, 20, 27, 7, 1, 1, 0, [1, 0, 1, 1]>, <38, 4, 12, 8, 2, 1, 0, [1, 0, 1, 1]>, <39, 5, 13, 8, 2, 1, 0, [1, 0, 1, 1]>, <40, 11, 19, 8, 2, 1, 0, [1, 0, 1, 1]>, <41, 12, 20, 8, 2, 1, 0, [1, 0, 1, 1]>, <42, 16, 24, 8, 2, 1, 0, [1, 0, 1, 1]>, <43, 17, 25, 8, 2, 1, 0, [1, 0, 1, 1]>, <44, 18, 26, 8, 2, 1, 0, [1, 0, 1, 1]>, <45, 19, 27, 8, 2, 1, 0, [1, 0, 1, 1]>, <46, 20, 28, 8, 2, 1, 0, [1, 0, 1, 1]>, <47, 4, 12, 8, 3, 0, 1, [1, 1, 0, 1]>, <48, 5, 13, 8, 3, 0, 1, [1, 1, 0, 1]>, <49, 11, 19, 8, 3, 0, 1, [1, 1, 0, 1]>, <50, 12, 20, 8, 3, 0, 1, [1, 1, 0, 1]>, <51, 16, 24, 8, 3, 0, 1, [1, 1, 0, 1]>, <52, 17, 25, 8, 3, 0, 1, [1, 1, 0, 1]>, <53, 18, 26, 8, 3, 0, 1, [1, 1, 0, 1]>, <54, 19, 27, 8, 3, 0, 1, [1, 1, 0, 1]>, <55, 20, 28, 8, 3, 0, 1, [1, 1, 0, 1]>, <56, 4, 12, 8, 4, 0, 1, [1, 0, 1, 1]>, <57, 5, 13, 8, 4, 0, 1, [1, 0, 1, 1]>, <58, 11, 19, 8, 4, 0, 1, [1, 0, 1, 1]>, <59, 12, 20, 8, 4, 0, 1, [1, 0, 1, 1]>, <60, 16, 24, 8, 4, 0, 1, [1, 0, 1, 1]>, <61, 17, 25, 8, 4, 0, 1, [1, 0, 1, 1]>, <62, 18, 26, 8, 4, 0, 1, [1, 0, 1, 1]>, <63, 19, 27, 8, 4, 0, 1, [1, 0, 1, 1]>, <64, 20, 28, 8, 4, 0, 1, [1, 0, 1, 1]>, <65, 1, 12, 11, 5, 0, 0, [1, 1, 1, 0]>, <66, 2, 13, 11, 5, 0, 0, [1, 1, 1, 0]>, <67, 3, 14, 11, 5, 0, 0, [1, 1, 1, 0]>, <68, 4, 15, 11, 5, 0, 0, [1, 1, 1, 0]>, <69, 5, 16, 11, 5, 0, 0, [1, 1, 1, 0]>, <70, 9, 20, 11, 5, 0, 0, [1, 1, 1, 0]>, <71, 10, 21, 11, 5, 0, 0, [1, 1, 1, 0]>, <72, 11, 22, 11, 5, 0, 0, [1, 1, 1, 0]>, <73, 12, 23, 11, 5, 0, 0, [1, 1, 1, 0]>, <74, 13, 24, 11, 5, 0, 0, [1, 1, 1, 0]>, <75, 14, 25, 11, 5, 0, 0, [1, 1, 1, 0]>, <76, 15, 26, 11, 5, 0, 0, [1, 1, 1, 0]>, <77, 16, 27, 11, 5, 0, 0, [1, 1, 1, 0]>, <78, 17, 28, 11, 5, 0, 0, [1, 1, 1, 0]>, <79, 18, 29, 11, 5, 0, 0, [1, 1, 1, 0]>, <80, 1, 12, 11, 6, 0, 1, [1, 1, 1, 0]>, <81, 2, 13, 11, 6, 0, 1, [1, 1, 1, 0]>, <82, 3, 14, 11, 6, 0, 1, [1, 1, 1, 0]>, <83, 4, 15, 11, 6, 0, 1, [1, 1, 1, 0]>, <84, 5, 16, 11, 6, 0, 1, [1, 1, 1, 0]>, <85, 9, 20, 11, 6, 0, 1, [1, 1, 1, 0]>, <86, 10, 21, 11, 6, 0, 1, [1, 1, 1, 0]>, <87, 11, 22, 11, 6, 0, 1, [1, 1, 1, 0]>, <88, 12, 23, 11, 6, 0, 1, [1, 1, 1, 0]>, <89, 13, 24, 11, 6, 0, 1, [1, 1, 1, 0]>, <90, 14, 25, 11, 6, 0, 1, [1, 1, 1, 0]>, <91, 15, 26, 11, 6, 0, 1, [1, 1, 1, 0]>, <92, 16, 27, 11, 6, 0, 1, [1, 1, 1, 0]>, <93, 17, 28, 11, 6, 0, 1, [1, 1, 1, 0]>, <94, 18, 29, 11, 6, 0, 1, [1, 1, 1, 0]>, <95, 4, 12, 8, 7, 0, 0, [1, 1, 1, 0]>, <96, 5, 13, 8, 7, 0, 0, [1, 1, 1, 0]>, <97, 11, 19, 8, 7, 0, 0, [1, 1, 1, 0]>, <98, 12, 20, 8, 7, 0, 0, [1, 1, 1, 0]>, <99, 16, 24, 8, 7, 0, 0, [1, 1, 1, 0]>, <100, 17, 25, 8, 7, 0, 0, [1, 1, 1, 0]>, <101, 18, 26, 8, 7, 0, 0, [1, 1, 1, 0]>, <102, 19, 27, 8, 7, 0, 0, [1, 1, 1, 0]>, <103, 20, 28, 8, 7, 0, 0, [1, 1, 1, 0]>};
